% Coefficient of the weighted-sum
% 2 4 2 0 2
cl1 = 0.09841;
cl2 = 0.02784;
cl3 = 0.31226;
cl4 = 0.55201;
cl5 = 0.009481;

S = 29;
overline_t = 11;
hat_t = 5;
D = 1;
P = 3;
E = 4;

a = array3d(0..S, 0..D, 0..overline_t,
    [
        0, 0, 0, 0, 0, 0, 0, 0, 0, 0, 0, 0, 
        1, 0, 0, 0, 0, 0, 0, 0, 1, 0, 0, 1, 
        0, 0, 0, 0, 0, 0, 0, 0, 0, 0, 0, 0, 
        1, 0, 1, 1, 0, 0, 0, 1, 1, 0, 1, 1, 
        0, 0, 0, 0, 0, 0, 0, 0, 0, 0, 0, 0, 
        0, 1, 1, 1, 1, 0, 1, 0, 1, 0, 1, 1, 
        0, 0, 0, 0, 0, 0, 0, 0, 0, 0, 0, 0, 
        1, 0, 0, 1, 1, 1, 0, 0, 0, 0, 1, 1, 
        0, 0, 0, 0, 0, 0, 0, 0, 0, 0, 0, 0, 
        0, 1, 0, 1, 1, 0, 1, 1, 1, 1, 0, 1, 
        0, 0, 0, 0, 0, 0, 0, 0, 0, 0, 0, 0, 
        0, 1, 1, 1, 0, 1, 1, 1, 0, 0, 0, 1, 
        0, 0, 0, 0, 0, 0, 0, 0, 0, 0, 0, 0, 
        0, 1, 0, 0, 0, 0, 0, 1, 0, 1, 1, 0, 
        0, 1, 0, 0, 1, 1, 0, 0, 1, 0, 1, 1, 
        1, 0, 0, 0, 1, 1, 0, 1, 1, 1, 0, 0, 
        0, 1, 1, 0, 1, 0, 1, 0, 0, 0, 0, 0, 
        1, 0, 1, 1, 1, 0, 0, 1, 1, 1, 1, 1, 
        1, 1, 1, 1, 0, 0, 1, 1, 1, 0, 0, 1, 
        0, 0, 0, 1, 1, 0, 0, 0, 0, 1, 0, 0, 
        1, 1, 0, 0, 0, 1, 1, 1, 0, 1, 0, 1, 
        1, 0, 0, 1, 1, 1, 1, 1, 1, 1, 1, 0, 
        1, 0, 0, 0, 1, 1, 1, 0, 1, 1, 0, 1, 
        0, 0, 0, 1, 0, 1, 0, 1, 1, 1, 0, 1, 
        1, 0, 1, 1, 0, 1, 0, 0, 0, 1, 1, 0, 
        1, 1, 1, 0, 0, 0, 1, 1, 0, 1, 0, 1, 
        0, 1, 1, 1, 0, 0, 0, 1, 0, 0, 0, 1, 
        1, 1, 0, 1, 1, 0, 0, 1, 1, 0, 1, 1, 
        1, 0, 1, 1, 0, 0, 0, 0, 1, 1, 0, 0, 
        0, 1, 0, 0, 0, 1, 0, 0, 0, 1, 1, 1, 
        0, 1, 1, 1, 1, 1, 0, 0, 0, 1, 1, 0, 
        0, 1, 1, 1, 0, 1, 1, 1, 0, 1, 1, 0, 
        1, 1, 1, 1, 1, 1, 0, 1, 1, 0, 0, 1, 
        0, 0, 1, 1, 0, 1, 1, 1, 1, 1, 1, 0, 
        0, 0, 0, 0, 0, 0, 0, 1, 1, 0, 1, 0, 
        1, 1, 1, 0, 1, 0, 0, 1, 1, 1, 1, 1, 
        1, 1, 0, 1, 0, 0, 1, 0, 1, 0, 1, 1, 
        0, 1, 0, 1, 0, 1, 0, 0, 0, 1, 1, 0, 
        0, 0, 0, 1, 0, 1, 1, 1, 1, 1, 0, 1, 
        1, 0, 1, 1, 0, 0, 0, 1, 0, 0, 0, 1, 
        1, 0, 0, 1, 0, 1, 1, 0, 1, 0, 1, 1, 
        1, 0, 0, 0, 0, 0, 1, 0, 1, 0, 1, 1, 
        0, 0, 0, 1, 0, 0, 0, 1, 0, 1, 1, 0, 
        0, 0, 0, 0, 0, 0, 0, 0, 0, 0, 0, 0, 
        1, 1, 0, 0, 0, 0, 1, 0, 0, 1, 1, 0, 
        0, 0, 0, 0, 0, 0, 0, 0, 0, 0, 0, 0, 
        1, 1, 0, 1, 1, 0, 0, 1, 1, 0, 1, 0, 
        0, 0, 0, 0, 0, 0, 0, 0, 0, 0, 0, 0, 
        1, 0, 1, 0, 1, 0, 1, 0, 0, 0, 1, 0, 
        0, 0, 0, 0, 0, 0, 0, 0, 0, 0, 0, 0, 
        0, 0, 0, 0, 0, 1, 1, 1, 1, 1, 0, 0, 
        0, 0, 0, 0, 0, 0, 0, 0, 0, 0, 0, 0, 
        0, 1, 0, 0, 1, 1, 1, 1, 0, 0, 1, 1, 
        0, 0, 0, 0, 0, 0, 0, 0, 0, 0, 0, 0, 
        1, 0, 0, 1, 0, 0, 1, 0, 1, 1, 0, 1, 
        0, 0, 0, 0, 0, 0, 0, 0, 0, 0, 0, 0, 
        0, 1, 1, 1, 1, 0, 1, 1, 0, 1, 1, 0, 
        0, 0, 0, 0, 0, 0, 0, 0, 0, 0, 0, 0, 
        0, 0, 1, 0, 0, 0, 0, 1, 0, 1, 0, 0, 
        0, 0, 0, 0, 0, 0, 0, 0, 0, 0, 0, 0
    ]
);

b = array2d(0..S, 0..E, [
    0, 1, 0, 0, 0, 
    0, 1, 0, 0, 0, 
    0, 1, 0, 0, 0, 
    0, 0, 0, 1, 0, 
    0, 0, 0, 0, 1, 
    0, 0, 0, 0, 1, 
    0, 1, 0, 0, 0, 
    1, 0, 0, 0, 0, 
    1, 0, 0, 0, 0, 
    1, 0, 0, 0, 0, 
    0, 0, 1, 0, 0, 
    0, 0, 1, 0, 0, 
    0, 0, 0, 0, 1, 
    1, 0, 0, 0, 0, 
    0, 1, 0, 0, 0, 
    0, 0, 1, 0, 0, 
    0, 0, 1, 0, 0, 
    0, 0, 0, 0, 1, 
    1, 0, 0, 0, 0, 
    0, 0, 0, 0, 1, 
    0, 0, 0, 0, 1, 
    0, 0, 1, 0, 0, 
    0, 0, 0, 1, 0, 
    0, 0, 0, 0, 1, 
    0, 0, 0, 1, 0, 
    1, 0, 0, 0, 0, 
    0, 0, 1, 0, 0, 
    0, 1, 0, 0, 0, 
    0, 0, 0, 0, 1, 
    0, 1, 0, 0, 0
]);

u = 0;
v = 6;

M = 15;
